H atom ! description                    
   1.0000000000000000     
     5.0000000000000000    0.0000000000000000    0.0000000000000000
     0.0000000000000000    5.0000000000000000    0.0000000000000000
     0.0000000000000000    0.0000000000000000    5.0000000000000000
   H 
     2
Direct
  0.0000000000000000  0.0000000000000000  0.0000000000000000
  0.2000000000000028  0.0000000000000000  0.0000000000000000

  0.00000000E+00  0.00000000E+00  0.00000000E+00
  0.00000000E+00  0.00000000E+00  0.00000000E+00
