SYSTEM = H atom ! description
ISMEAR = 0 ! smearing type
SIGMA = 0.01 ! smearing width (eV)
ENCUT = 350