H4                                      
   1.0000000000000000     
     3.3809420000000001    0.0000000000000000    0.0000000000000002
     0.0000000000000005    3.3809420000000001    0.0000000000000002
     0.0000000000000000    0.0000000000000000    4.1205400000000001
   H 
     4
Direct
  0.0000000000000000  0.0000000000000000  0.9089650000000020
  0.0000000000000000  0.0000000000000000  0.0910349999999980
  0.5000000000000000  0.5000000000000000  0.4089650000000020
  0.5000000000000000  0.5000000000000000  0.5910349999999980

  0.00000000E+00  0.00000000E+00  0.00000000E+00
  0.00000000E+00  0.00000000E+00  0.00000000E+00
  0.00000000E+00  0.00000000E+00  0.00000000E+00
  0.00000000E+00  0.00000000E+00  0.00000000E+00
