H4
1.0
   3.3809420000000001    0.0000000000000000    0.0000000000000002
   0.0000000000000005    3.3809420000000001    0.0000000000000002
   0.0000000000000000    0.0000000000000000    4.1205400000000001
H
4
direct
   0.0000000000000000    0.0000000000000000    0.9089650000000000 H0+
   0.0000000000000000    0.0000000000000000    0.0910350000000000 H0+
   0.5000000000000000    0.5000000000000000    0.4089650000000000 H0+
   0.5000000000000000    0.5000000000000000    0.5910350000000000 H0+